; benchmark generated from python API
(set-info :status unknown)
(declare-fun S_4 () Real)
(declare-fun S_5 () Real)
(declare-fun C () Real)
(declare-fun S_3 () Real)
(declare-fun S_2 () Real)
(declare-fun S_0 () Real)
(declare-fun S_1 () Real)
(declare-fun L_0 () Real)
(declare-fun A_0 () Real)
(declare-fun L0 () Real)
(declare-fun B () Real)
(declare-fun A_1 () Real)
(declare-fun L_1 () Real)
(declare-fun A_2 () Real)
(declare-fun L_3 () Real)
(declare-fun A_4 () Real)
(declare-fun A_3 () Real)
(declare-fun L_2 () Real)
(declare-fun L_4 () Real)
(declare-fun A_5 () Real)
(assert
 (let (($x42 (>= L0 0.0)))
 (let (($x926 (>= C 5.0)))
 (let (($x899 (>= B 5.0)))
 (let (($x19946 (<= (+ (* (- 1.0) L_0) (* 3.0 C) (* (- 1.0) S_5) A_1) 0.0)))
 (let ((?x1302 (* 2.0 C)))
 (let ((?x377 (* (- 1.0) L_1)))
 (let ((?x18201 (+ A_2 ?x377 ?x1302)))
 (let (($x18316 (>= S_5 ?x18201)))
 (let ((?x561 (* (- 1.0) L_3)))
 (let ((?x1060 (+ A_4 ?x561)))
 (let (($x2676 (>= S_5 ?x1060)))
 (let (($x32704 (or $x2676 $x18316 (<= (+ (* 4.0 C) (* (- 1.0) S_5) S_0) 0.0) $x19946)))
 (let ((?x18093 (+ A_2 ?x377 C)))
 (let (($x18206 (>= S_4 ?x18093)))
 (let (($x32938 (or (<= (+ A_1 ?x377 ?x1302) S_4) $x18206 (<= (+ (* 3.0 C) S_0 (* (- 1.0) S_4)) 0.0))))
 (let (($x21082 (or $x2676 $x18316 (<= (+ (* 3.0 C) S_1 (* (- 1.0) S_5)) 0.0))))
 (let (($x18062 (<= (+ A_4 (* (- 1.0) A_3) (* (- 1.0) C)) 0.0)))
 (let (($x1653 (not (= L_3 L_4))))
 (let ((?x1042 (+ A_2 ?x377)))
 (let (($x1461 (>= S_3 ?x1042)))
 (let (($x19626 (or $x1461 (<= (+ C (* (- 1.0) L_0) (* (- 1.0) S_3) A_1) 0.0) (<= (+ ?x1302 (* (- 1.0) S_3) S_0) 0.0))))
 (let (($x1606 (not (= L_1 L_3))))
 (let (($x69 (= L_2 L_1)))
 (let (($x32419 (or $x69 $x1653 (<= (+ A_4 ?x561 (* (- 1.0) A_2) L_2 (* (- 2.0) C)) 0.0))))
 (let ((?x363 (* (- 1.0) L_4)))
 (let ((?x598 (* (- 1.0) A_1)))
 (let ((?x635 (* (- 1.0) B)))
 (let ((?x2417 (* (- 3.0) C)))
 (let (($x31752 (or (not (<= (+ A_1 (* (- 1.0) L_0)) (+ ?x635 ?x363 A_4 ?x2417))) (= (+ ?x2417 ?x635 A_4 ?x598 ?x363 L_0) 0.0))))
 (let ((?x1270 (* (- 2.0) C)))
 (let ((?x18665 (+ ?x635 ?x363 A_4 ?x1270)))
 (let ((?x695 (* (- 1.0) L_0)))
 (let ((?x1888 (+ A_2 ?x695)))
 (let (($x19028 (<= ?x1888 ?x18665)))
 (let ((?x5108 (* (- 4.0) C)))
 (let ((?x18667 (+ ?x635 ?x363 A_4 ?x5108)))
 (let (($x18744 (<= S_0 ?x18667)))
 (let (($x6504 (= L_4 L_0)))
 (let (($x6313 (not (= L_0 L_3))))
 (let (($x32133 (or $x6313 $x6504 (not (<= (+ A_2 ?x598 (* (- 1.0) C)) 0.0)) $x18744 $x19028)))
 (let (($x32026 (or $x6313 $x6504 $x18744 $x19028 (not (= (+ A_3 ?x695 C) (+ A_4 ?x363))) (<= A_1 (+ ?x635 A_3 ?x1270)))))
 (let (($x18751 (<= (+ A_1 ?x695 L_4 (* (- 1.0) A_4) (* 3.0 C)) 0.0)))
 (let (($x2314 (not (<= L_2 L_0))))
 (let (($x89 (= L_4 L_3)))
 (let ((?x965 (+ A_4 ?x363 ?x635)))
 (let (($x18202 (= ?x965 ?x18201)))
 (let ((?x18681 (+ ?x635 ?x363 A_4 ?x2417)))
 (let ((?x1029 (+ A_1 ?x695)))
 (let (($x18698 (<= ?x1029 ?x18681)))
 (let (($x17185 (<= (+ A_2 ?x598 (* (- 1.0) C)) 0.0)))
 (let ((?x345 (* (- 1.0) C)))
 (let ((?x594 (* (- 1.0) A_2)))
 (let ((?x16894 (+ A_3 ?x594 ?x345)))
 (let (($x16756 (<= ?x16894 0.0)))
 (let (($x31928 (or $x6504 $x16756 $x17185 $x18698 (not (<= (+ A_3 ?x695 L_4 (* (- 1.0) A_4) C) 0.0)) $x18744)))
 (let (($x18725 (<= (+ A_3 ?x695 L_4 (* (- 1.0) A_4) C) 0.0)))
 (let (($x6981 (= L_4 L_1)))
 (let (($x973 (not (<= L_1 L_0))))
 (let (($x1523 (not (= L_1 L_2))))
 (let (($x18760 (or $x89 $x973 $x1523 (<= (+ A_2 ?x695 L_4 (* (- 1.0) A_4) ?x1302) 0.0))))
 (let (($x33068 (or (= (+ ?x1270 ?x561 A_3 ?x635 L_0 ?x598) 0.0) (not (<= ?x1029 (+ ?x635 ?x561 A_3 ?x1270))))))
 (let (($x32445 (or (<= (+ ?x695 (* (- 1.0) S_2) A_1) 0.0) (<= (+ C (* (- 1.0) S_2) S_0) 0.0))))
 (let ((?x18407 (+ ?x635 ?x561 A_3 ?x345)))
 (let (($x18466 (<= ?x1888 ?x18407)))
 (let (($x79 (= L_3 L_2)))
 (let (($x19826 (or $x79 $x2314 $x18466 (<= (+ A_1 ?x695 L_3 (* (- 1.0) A_3) ?x1302) 0.0))))
 (let ((?x18414 (+ ?x635 ?x561 A_3 ?x1270)))
 (let (($x18538 (<= ?x1029 ?x18414)))
 (let (($x1607 (= L_3 L_1)))
 (let (($x18588 (or $x973 $x1523 $x1607 (<= (+ A_2 ?x695 L_3 (* (- 1.0) A_3) C) 0.0))))
 (let ((?x567 (* (- 1.0) L_2)))
 (let ((?x17218 (+ ?x635 ?x567 A_2 ?x1270)))
 (let (($x18047 (<= S_0 ?x17218)))
 (let ((?x18019 (+ ?x635 ?x567 A_2 ?x345)))
 (let (($x17359 (<= ?x1029 ?x18019)))
 (let (($x1445 (not (<= L_3 L_1))))
 (let (($x59 (= L_1 L_0)))
 (let (($x17995 (<= A_2 (+ A_1 ?x635 C))))
 (let ((?x17993 (+ A_2 ?x567 ?x635 ?x1302)))
 (let (($x17740 (<= ?x1060 ?x17993)))
 (let (($x31776 (or $x59 $x89 $x17995 (= (+ A_4 ?x363) (+ A_1 ?x377 (* 3.0 C))))))
 (let (($x17068 (<= A_4 (+ A_3 ?x635 C))))
 (let (($x41 (>= L_0 L0)))
 (let (($x131 (>= S_1 S_0)))
 (let (($x134 (>= S_2 S_1)))
 (let (($x137 (>= S_3 S_2)))
 (let (($x140 (>= S_4 S_3)))
 (let (($x145 (>= A_1 A_0)))
 (let (($x146 (>= A_2 A_1)))
 (let (($x148 (>= A_4 A_3)))
 (let (($x149 (>= A_5 A_4)))
 (and (<= (+ A_3 ?x561) S_5) (<= (+ A_2 ?x567) S_4) $x149 $x148 $x146 $x145 $x140 $x137 $x134 $x131 $x41 (not (<= (+ A_3 ?x561) S_4)) (or $x89 (<= S_4 ?x965)) (or $x69 (<= S_2 (+ A_2 ?x567 ?x635))) (>= S_0 (+ ?x635 ?x377 A_1 ?x1270)) (or $x59 $x973) (<= (+ ?x635 ?x377 A_1 ?x345) (+ A_0 ?x695)) (>= S_1 (+ ?x635 ?x377 A_1 ?x345)) (or $x89 (<= S_5 (+ A_4 ?x363 ?x635 C))) (or $x69 (not (<= L_2 L_1))) (or $x79 (<= S_3 (+ A_3 ?x561 ?x635))) (or $x59 (<= S_1 (+ A_1 ?x377 ?x635))) (or $x59 (<= S_0 (+ ?x635 ?x377 A_1 ?x345))) (>= S_3 (+ A_2 ?x567 ?x635)) (>= S_2 (+ A_1 ?x377 ?x635)) (not (<= (+ A_3 ?x561) (+ A_2 ?x567 ?x635 C))) (>= S_4 (+ A_2 ?x567 ?x635 C)) (<= S_2 ?x1042) (or $x59 $x69 (= (+ A_2 ?x567) (+ A_1 ?x377 C))) (or $x69 $x79 (= L_3 (+ A_3 ?x594 L_2 ?x345))) (or $x69 (<= S_3 (+ A_2 ?x567 ?x635 C))) (or $x69 (<= S_4 ?x17993)) (or $x69 (<= S_5 (+ A_2 ?x567 ?x635 (* 3.0 C)))) (>= S_5 ?x965) (or $x69 $x89 (= (+ A_4 ?x363) (+ A_2 ?x567 ?x1302))) (or $x69 (not (= L_2 L_3)) $x16756) (or $x69 $x973 (<= (+ A_1 ?x695 L_2 ?x594 C) 0.0)) (>= S_2 ?x18019) (>= S_0 (+ ?x635 ?x567 A_2 ?x2417)) (<= ?x17218 (+ A_0 ?x695)) (>= S_1 ?x17218) (or $x79 $x17359 (not (= L_3 (+ A_3 ?x594 L_2 ?x345))) $x18047) (<= (+ S_1 L_0 ?x598) 0.0) (or (not $x17359) (= (+ ?x345 A_2 ?x567 ?x635 L_0 ?x598) 0.0)) (or $x69 (<= S_1 ?x18019)) (or (not $x16756) $x79) (or $x89 (not (<= L_4 L_3))) (or (>= S_3 (+ A_1 ?x377 ?x635 C)) $x1461) (or $x79 (<= S_4 (+ A_3 ?x561 ?x635 C))) (or $x59 $x79 $x17995 (= (+ A_1 ?x377 ?x1302) (+ A_3 ?x561))) (or $x1607 (not $x17995) (= (+ A_3 ?x561 ?x635) ?x18093)) (or $x1445 $x1607) (or $x79 $x89 (= (+ A_4 ?x363) (+ A_3 ?x561 C))) (or $x17068 (>= S_5 (+ A_3 ?x561 ?x635 C))) (or $x2676 (not $x17068)) (<= S_5 (+ A_5 ?x363)) (>= S_4 (+ A_3 ?x561 ?x635)) (or $x59 $x1523 $x17185) (or $x17995 (>= S_4 (+ A_1 ?x377 ?x635 ?x1302))) $x31776 (or $x59 (<= S_3 (+ A_1 ?x377 ?x635 ?x1302))) (or $x59 $x1606 (<= (+ A_3 ?x598 ?x1270) 0.0)) (or $x17740 (>= S_5 ?x17993)) (or $x2676 (not $x17740)) (or $x89 (not $x17995) $x18202) (or (not $x17995) $x18206) (or $x79 $x1653 $x18062) (or $x59 (<= S_2 (+ A_1 ?x377 ?x635 C))) (or $x59 (<= S_4 (+ A_1 ?x377 ?x635 (* 3.0 C)))) (or $x2676 $x17995 (>= S_5 (+ A_1 ?x377 ?x635 (* 3.0 C)))) (or $x59 (<= S_5 (+ A_1 ?x377 ?x635 (* 4.0 C)))) (or $x59 $x1445 $x1653 (<= (+ A_4 ?x598 ?x2417) 0.0)) (or $x2676 (not $x17995) $x18316) (or $x69 $x17359 $x18047) (<= S_5 (+ A_2 ?x377 (* 3.0 C))) (or $x79 (<= S_2 ?x18407)) (>= S_3 ?x18407) (or (= (+ A_3 ?x561 ?x635) (+ A_2 ?x695 C)) (not $x18466)) (>= S_2 ?x18414) (>= S_1 (+ ?x635 ?x561 A_3 ?x2417)) $x18588 (<= (+ ?x635 ?x561 A_3 ?x2417) (+ A_0 ?x695)) (or $x79 $x973 (<= S_0 (+ ?x635 ?x561 A_3 ?x2417)) $x18466 $x18538) (or $x79 $x973 (<= S_1 ?x18414) $x18466) $x19826 (<= (+ ?x345 L_0 S_1 (* (- 1.0) A_0)) 0.0) $x32445 (or $x17185 (not (= (+ A_2 ?x695 C) (+ A_3 ?x561 ?x635)))) (>= S_0 (+ ?x635 ?x561 A_3 ?x5108)) $x33068 (or $x89 (<= S_3 (+ ?x635 ?x363 A_4 ?x345))) $x18760 (>= S_4 (+ ?x635 ?x363 A_4 ?x345)) (or $x89 (<= S_2 ?x18665)) (>= S_3 ?x18665) (or $x973 $x1606 $x6981 $x18725) (<= (+ ?x2417 L_0 (* (- 1.0) A_0) S_3) 0.0) (<= ?x18667 (+ A_0 ?x695)) (or $x89 $x18206 $x18698 $x18744) $x31928 (<= (+ ?x1270 S_3 (* (- 1.0) S_2)) 0.0) (>= S_2 ?x18681) (or (= ?x965 (+ A_2 ?x695 ?x1302)) (not $x19028)) (or $x89 $x18202 (<= S_1 ?x18681)) (>= S_0 (+ ?x635 ?x363 A_4 (* (- 5.0) C))) (>= S_1 ?x18667) (or $x89 $x2314 (>= S_4 (+ A_2 ?x695 C)) $x18751) (or $x6313 $x6504 $x18751 $x19028) $x32026 $x32133 $x31752 $x32419 (<= S_3 ?x18093) (or $x1606 (<= ?x16894 B)) (or $x1461 (<= (+ C S_1 (* (- 1.0) S_3)) 0.0)) $x19626 (<= (+ ?x1270 ?x598 L_0 S_3) 0.0) (or $x18206 (<= (+ ?x1302 S_1 (* (- 1.0) S_4)) 0.0)) (<= (+ ?x2417 S_2 (* (- 1.0) S_0)) 0.0) (<= (+ ?x1270 L_0 (* (- 1.0) A_0) S_2) 0.0) (or $x1653 $x18062 (<= (+ A_4 ?x594 ?x1270) B)) (<= S_5 (+ A_4 ?x561 C)) (<= (+ ?x5108 S_5 (* (- 1.0) S_2)) 0.0) (or $x2676 (<= (+ ?x1302 (* (- 1.0) S_5) S_2) 0.0)) (or $x2676 (<= (+ C (* (- 1.0) S_5) S_3) 0.0)) $x21082 (<= (+ ?x5108 S_3 (* (- 1.0) S_0)) 0.0) (<= (+ ?x345 L_0 S_2 ?x598) 0.0) (<= (+ ?x2417 (* (- 1.0) S_1) S_3) 0.0) (or $x79 (<= S_5 (+ A_3 ?x561 ?x635 ?x1302))) (<= S_4 ?x18201) (<= (+ ?x2417 (* (- 1.0) S_2) S_4) 0.0) $x32938 (<= (+ ?x1270 (* (- 1.0) S_1) S_2) 0.0) (<= (+ (* (- 5.0) C) (* (- 1.0) S_0) S_4) 0.0) (<= (+ L_0 ?x2417 ?x598 S_4) 0.0) (<= (+ (* (- 5.0) C) (* (- 1.0) S_1) S_5) 0.0) (<= (+ L_0 ?x5108 S_5 ?x598) 0.0) (<= (+ ?x5108 L_0 (* (- 1.0) A_0) S_4) 0.0) (<= (+ (* (- 5.0) C) L_0 (* (- 1.0) A_0) S_5) 0.0) (<= (+ (* (- 6.0) C) S_5 (* (- 1.0) S_0)) 0.0) $x32704 (<= (+ ?x5108 (* (- 1.0) S_1) S_4) 0.0) $x899 $x926 $x42 (<= (+ (* (- 1.0) A_0) L_0 S_0) 0.0) (<= (+ ?x1270 S_1 (* (- 1.0) S_0)) 0.0) (<= (+ C S_2 (* (- 1.0) S_4)) 0.0) (<= (+ ?x1270 (* (- 1.0) S_3) S_4) 0.0) (<= (+ ?x2417 S_5 (* (- 1.0) S_3)) 0.0) (<= (+ ?x1270 S_5 (* (- 1.0) S_4)) 0.0))))))))))))))))))))))))))))))))))))))))))))))))))))))))))))))))))))))))))))))))))))))))))))))
(check-sat)
